60
1 255 1321
2 2397 2647
3 702 2465
4 1676 74
5 2514 1273
6 675 2543
7 513 404
8 687 267
9 1412 135
10 362 2818
11 2390 1628
12 2644 2798
13 794 1999
14 1861 1824
15 2196 1949
16 1600 1159
17 1843 2721
18 2312 39
19 1821 1649
20 1926 516
21 2275 1576
22 1686 2767
23 2927 2102
24 2582 1232
25 1012 2477
26 985 2013
27 1780 1885
28 923 1017
29 2560 2674
30 606 72
31 2491 916
32 860 1642
33 2647 776
34 1422 2367
35 2269 133
36 1324 335
37 2873 502
38 1457 625
39 2053 2690
40 219 1535
41 447 1527
42 1835 208
43 1574 1594
44 1316 84
45 1755 1863
46 598 1345
47 2566 690
48 1104 1684
49 1558 1934
50 1734 230
51 253 2214
52 1477 1173
53 1771 722
54 2916 1350
55 1004 1301
56 2655 219
57 1564 2981
58 1473 2559
59 97 872
60 2654 800
